[VALIDATOR STDOUT]
Checking plan: /home/jfan5/Safety-gen/runs/benchmark/optic/blocksworld_20260215_223618/blocksworld/optic_results/bw_ops3_n15_seed15001.plan
Plan to validate:

Plan size: 64
1:
(unstack b13 b4)
 
2:
(putdown b13)
 
3:
(unstack b11 b14)
 
4:
(putdown b11)
 
5:
(unstack b10 b3)
 
6:
(putdown b10)
 
7:
(pickup b9)
 
8:
(stack b9 b14)
 
9:
(unstack b4 b5)
 
10:
(stack b4 b11)
 
11:
(unstack b5 b7)
 
12:
(stack b5 b8)
 
13:
(unstack b7 b2)
 
14:
(stack b7 b4)
 
15:
(unstack b2 b15)
 
16:
(stack b2 b5)
 
17:
(pickup b15)
 
18:
(stack b15 b9)
 
19:
(unstack b2 b5)
 
20:
(putdown b2)
 
21:
(unstack b15 b9)
 
22:
(putdown b15)
 
23:
(unstack b9 b14)
 
24:
(putdown b9)
 
25:
(unstack b14 b1)
 
26:
(stack b14 b10)
 
27:
(pickup b9)
 
28:
(stack b9 b14)
 
29:
(unstack b3 b6)
 
30:
(stack b3 b1)
 
31:
(pickup b2)
 
32:
(stack b2 b5)
 
33:
(pickup b15)
 
34:
(stack b15 b9)
 
35:
(unstack b3 b1)
 
36:
(putdown b3)
 
37:
(unstack b1 b12)
 
38:
(stack b1 b2)
 
39:
(pickup b3)
 
40:
(stack b3 b1)
 
41:
(pickup b12)
 
42:
(stack b12 b13)
 
43:
(unstack b3 b1)
 
44:
(putdown b3)
 
45:
(unstack b1 b2)
 
46:
(putdown b1)
 
47:
(unstack b2 b5)
 
48:
(putdown b2)
 
49:
(pickup b3)
 
50:
(stack b3 b1)
 
51:
(unstack b5 b8)
 
52:
(putdown b5)
 
53:
(pickup b8)
 
54:
(stack b8 b12)
 
55:
(pickup b5)
 
56:
(stack b5 b8)
 
57:
(pickup b2)
 
58:
(stack b2 b5)
 
59:
(unstack b3 b1)
 
60:
(putdown b3)
 
61:
(pickup b1)
 
62:
(stack b1 b2)
 
63:
(pickup b3)
 
64:
(stack b3 b1)
 

Plan Validation details
-----------------------

Checking next happening (time 1)
Deleting (on b13 b4)
Deleting (clear b13)
Deleting (arm-empty)
Adding (holding b13)
Adding (clear b4)

Checking next happening (time 2)
Deleting (holding b13)
Adding (clear b13)
Adding (arm-empty)
Adding (on-table b13)

Checking next happening (time 3)
Deleting (on b11 b14)
Deleting (clear b11)
Deleting (arm-empty)
Adding (holding b11)
Adding (clear b14)

Checking next happening (time 4)
Deleting (holding b11)
Adding (clear b11)
Adding (arm-empty)
Adding (on-table b11)

Checking next happening (time 5)
Deleting (on b10 b3)
Deleting (clear b10)
Deleting (arm-empty)
Adding (holding b10)
Adding (clear b3)

Checking next happening (time 6)
Deleting (holding b10)
Adding (clear b10)
Adding (arm-empty)
Adding (on-table b10)

Checking next happening (time 7)
Deleting (clear b9)
Deleting (on-table b9)
Deleting (arm-empty)
Adding (holding b9)

Checking next happening (time 8)
Deleting (clear b14)
Deleting (holding b9)
Adding (arm-empty)
Adding (clear b9)
Adding (on b9 b14)

Checking next happening (time 9)
Deleting (on b4 b5)
Deleting (clear b4)
Deleting (arm-empty)
Adding (holding b4)
Adding (clear b5)

Checking next happening (time 10)
Deleting (clear b11)
Deleting (holding b4)
Adding (arm-empty)
Adding (clear b4)
Adding (on b4 b11)

Checking next happening (time 11)
Deleting (on b5 b7)
Deleting (clear b5)
Deleting (arm-empty)
Adding (holding b5)
Adding (clear b7)

Checking next happening (time 12)
Deleting (clear b8)
Deleting (holding b5)
Adding (arm-empty)
Adding (clear b5)
Adding (on b5 b8)

Checking next happening (time 13)
Deleting (on b7 b2)
Deleting (clear b7)
Deleting (arm-empty)
Adding (holding b7)
Adding (clear b2)

Checking next happening (time 14)
Deleting (clear b4)
Deleting (holding b7)
Adding (arm-empty)
Adding (clear b7)
Adding (on b7 b4)

Checking next happening (time 15)
Deleting (on b2 b15)
Deleting (clear b2)
Deleting (arm-empty)
Adding (holding b2)
Adding (clear b15)

Checking next happening (time 16)
Deleting (clear b5)
Deleting (holding b2)
Adding (arm-empty)
Adding (clear b2)
Adding (on b2 b5)

Checking next happening (time 17)
Deleting (clear b15)
Deleting (on-table b15)
Deleting (arm-empty)
Adding (holding b15)

Checking next happening (time 18)
Deleting (clear b9)
Deleting (holding b15)
Adding (arm-empty)
Adding (clear b15)
Adding (on b15 b9)

Checking next happening (time 19)
Deleting (on b2 b5)
Deleting (clear b2)
Deleting (arm-empty)
Adding (holding b2)
Adding (clear b5)

Checking next happening (time 20)
Deleting (holding b2)
Adding (clear b2)
Adding (arm-empty)
Adding (on-table b2)

Checking next happening (time 21)
Deleting (on b15 b9)
Deleting (clear b15)
Deleting (arm-empty)
Adding (holding b15)
Adding (clear b9)

Checking next happening (time 22)
Deleting (holding b15)
Adding (clear b15)
Adding (arm-empty)
Adding (on-table b15)

Checking next happening (time 23)
Deleting (on b9 b14)
Deleting (clear b9)
Deleting (arm-empty)
Adding (holding b9)
Adding (clear b14)

Checking next happening (time 24)
Deleting (holding b9)
Adding (clear b9)
Adding (arm-empty)
Adding (on-table b9)

Checking next happening (time 25)
Deleting (on b14 b1)
Deleting (clear b14)
Deleting (arm-empty)
Adding (holding b14)
Adding (clear b1)

Checking next happening (time 26)
Deleting (clear b10)
Deleting (holding b14)
Adding (arm-empty)
Adding (clear b14)
Adding (on b14 b10)

Checking next happening (time 27)
Deleting (clear b9)
Deleting (on-table b9)
Deleting (arm-empty)
Adding (holding b9)

Checking next happening (time 28)
Deleting (clear b14)
Deleting (holding b9)
Adding (arm-empty)
Adding (clear b9)
Adding (on b9 b14)

Checking next happening (time 29)
Deleting (on b3 b6)
Deleting (clear b3)
Deleting (arm-empty)
Adding (holding b3)
Adding (clear b6)

Checking next happening (time 30)
Deleting (clear b1)
Deleting (holding b3)
Adding (arm-empty)
Adding (clear b3)
Adding (on b3 b1)

Checking next happening (time 31)
Deleting (clear b2)
Deleting (on-table b2)
Deleting (arm-empty)
Adding (holding b2)

Checking next happening (time 32)
Deleting (clear b5)
Deleting (holding b2)
Adding (arm-empty)
Adding (clear b2)
Adding (on b2 b5)

Checking next happening (time 33)
Deleting (clear b15)
Deleting (on-table b15)
Deleting (arm-empty)
Adding (holding b15)

Checking next happening (time 34)
Deleting (clear b9)
Deleting (holding b15)
Adding (arm-empty)
Adding (clear b15)
Adding (on b15 b9)

Checking next happening (time 35)
Deleting (on b3 b1)
Deleting (clear b3)
Deleting (arm-empty)
Adding (holding b3)
Adding (clear b1)

Checking next happening (time 36)
Deleting (holding b3)
Adding (clear b3)
Adding (arm-empty)
Adding (on-table b3)

Checking next happening (time 37)
Deleting (on b1 b12)
Deleting (clear b1)
Deleting (arm-empty)
Adding (holding b1)
Adding (clear b12)

Checking next happening (time 38)
Deleting (clear b2)
Deleting (holding b1)
Adding (arm-empty)
Adding (clear b1)
Adding (on b1 b2)

Checking next happening (time 39)
Deleting (clear b3)
Deleting (on-table b3)
Deleting (arm-empty)
Adding (holding b3)

Checking next happening (time 40)
Deleting (clear b1)
Deleting (holding b3)
Adding (arm-empty)
Adding (clear b3)
Adding (on b3 b1)

Checking next happening (time 41)
Deleting (clear b12)
Deleting (on-table b12)
Deleting (arm-empty)
Adding (holding b12)

Checking next happening (time 42)
Deleting (clear b13)
Deleting (holding b12)
Adding (arm-empty)
Adding (clear b12)
Adding (on b12 b13)

Checking next happening (time 43)
Deleting (on b3 b1)
Deleting (clear b3)
Deleting (arm-empty)
Adding (holding b3)
Adding (clear b1)

Checking next happening (time 44)
Deleting (holding b3)
Adding (clear b3)
Adding (arm-empty)
Adding (on-table b3)

Checking next happening (time 45)
Deleting (on b1 b2)
Deleting (clear b1)
Deleting (arm-empty)
Adding (holding b1)
Adding (clear b2)

Checking next happening (time 46)
Deleting (holding b1)
Adding (clear b1)
Adding (arm-empty)
Adding (on-table b1)

Checking next happening (time 47)
Deleting (on b2 b5)
Deleting (clear b2)
Deleting (arm-empty)
Adding (holding b2)
Adding (clear b5)

Checking next happening (time 48)
Deleting (holding b2)
Adding (clear b2)
Adding (arm-empty)
Adding (on-table b2)

Checking next happening (time 49)
Deleting (clear b3)
Deleting (on-table b3)
Deleting (arm-empty)
Adding (holding b3)

Checking next happening (time 50)
Deleting (clear b1)
Deleting (holding b3)
Adding (arm-empty)
Adding (clear b3)
Adding (on b3 b1)

Checking next happening (time 51)
Deleting (on b5 b8)
Deleting (clear b5)
Deleting (arm-empty)
Adding (holding b5)
Adding (clear b8)

Checking next happening (time 52)
Deleting (holding b5)
Adding (clear b5)
Adding (arm-empty)
Adding (on-table b5)

Checking next happening (time 53)
Deleting (clear b8)
Deleting (on-table b8)
Deleting (arm-empty)
Adding (holding b8)

Checking next happening (time 54)
Deleting (clear b12)
Deleting (holding b8)
Adding (arm-empty)
Adding (clear b8)
Adding (on b8 b12)

Checking next happening (time 55)
Deleting (clear b5)
Deleting (on-table b5)
Deleting (arm-empty)
Adding (holding b5)

Checking next happening (time 56)
Deleting (clear b8)
Deleting (holding b5)
Adding (arm-empty)
Adding (clear b5)
Adding (on b5 b8)

Checking next happening (time 57)
Deleting (clear b2)
Deleting (on-table b2)
Deleting (arm-empty)
Adding (holding b2)

Checking next happening (time 58)
Deleting (clear b5)
Deleting (holding b2)
Adding (arm-empty)
Adding (clear b2)
Adding (on b2 b5)

Checking next happening (time 59)
Deleting (on b3 b1)
Deleting (clear b3)
Deleting (arm-empty)
Adding (holding b3)
Adding (clear b1)

Checking next happening (time 60)
Deleting (holding b3)
Adding (clear b3)
Adding (arm-empty)
Adding (on-table b3)

Checking next happening (time 61)
Deleting (clear b1)
Deleting (on-table b1)
Deleting (arm-empty)
Adding (holding b1)

Checking next happening (time 62)
Deleting (clear b2)
Deleting (holding b1)
Adding (arm-empty)
Adding (clear b1)
Adding (on b1 b2)

Checking next happening (time 63)
Deleting (clear b3)
Deleting (on-table b3)
Deleting (arm-empty)
Adding (holding b3)

Checking next happening (time 64)
Deleting (clear b1)
Deleting (holding b3)
Adding (arm-empty)
Adding (clear b3)
Adding (on b3 b1)
Plan executed successfully - checking goal
Plan valid
Final value: 64 

Successful plans:
Value: 64
 /home/jfan5/Safety-gen/runs/benchmark/optic/blocksworld_20260215_223618/blocksworld/optic_results/bw_ops3_n15_seed15001.plan 64
